x_1
x_2
x_3
x_4
x_5
x_6
x_7
x_8
x_9
x_10
x_2 x_1
x_3 x_2
x_4 x_1
x_4 x_2
x_5 x_1
x_5 x_2
x_5 x_3
x_6 x_1
x_6 x_3
x_7 x_2
x_7 x_3
x_7 x_6
x_8 x_2
x_8 x_7
x_9 x_3
x_9 x_4
x_9 x_6
x_9 x_7
x_9 x_8
x_10 x_2
x_10 x_4
x_10 x_7
x_10 x_8
